% seed = 9681804

mint = 48;
% maxt = 123;

nActs = 22;
dur = [0,8,4,10,5,10,5,9,1,2,1,10,10,8,3,6,10,5,5,10,1,0];

nSkills = 4;
sreq = [| 0,0,0,0,
	| 0,2,0,2,
	| 0,2,2,0,
	| 0,0,2,2,
	| 0,2,0,1,
	| 1,0,0,1,
	| 2,0,2,0,
	| 0,2,0,3,
	| 1,0,1,0,
	| 2,0,0,3,
	| 0,0,2,2,
	| 0,2,1,0,
	| 3,0,1,0,
	| 1,3,0,0,
	| 0,1,2,0,
	| 0,3,0,3,
	| 3,3,0,0,
	| 3,0,2,0,
	| 2,0,2,0,
	| 0,0,3,1,
	| 0,0,1,3,
	| 0,0,0,0, |];

nResources = 13;
mastery = [| true,false,false,true,
	| true,true,false,true,
	| true,false,true,false,
	| false,false,false,true,
	| false,true,true,true,
	| true,false,false,false,
	| false,true,true,false,
	| true,false,false,false,
	| true,false,false,true,
	| true,true,true,false,
	| false,true,false,false,
	| false,true,false,true,
	| false,true,true,false, |];

nPrecs = 31;
pred = [1,1,1,2,3,3,4,4,5,6,6,7,8,8,9,10,11,11,12,12,13,13,13,14,15,16,17,18,19,20,21];
succ = [2,3,4,6,19,5,10,11,8,15,7,14,9,12,16,15,21,13,17,14,17,18,16,16,17,19,20,20,22,22,22];

nUnrels = 109;
unpred = [2,2,2,2,2,2,2,2,2,2,2,3,3,3,3,3,3,3,3,3,4,4,4,4,4,4,4,5,5,5,5,5,5,5,5,6,6,6,6,6,6,6,6,7,7,7,7,7,7,7,7,7,7,7,8,8,8,8,8,8,9,9,9,9,9,9,9,9,9,9,10,10,10,10,10,10,10,10,11,11,11,12,12,12,12,13,13,13,14,14,14,14,14,15,15,15,15,16,16,16,16,17,17,17,18,18,19,19,20];
unsucc = [3,4,5,8,9,10,11,12,13,18,21,4,6,7,10,11,13,15,18,21,5,6,7,8,9,12,14,6,7,10,11,13,15,18,21,8,9,10,11,12,13,18,21,8,9,10,11,12,13,15,17,18,20,21,10,11,13,15,18,21,10,11,12,13,14,15,17,18,20,21,11,12,13,14,16,18,19,21,12,14,15,13,15,18,21,14,15,21,15,17,18,20,21,16,18,19,21,17,18,20,21,18,19,21,19,21,20,21,21];

USEFUL_RES = [{},
	{1,2,4,5,7,9,10,11,12,13},
	{2,3,5,7,10,11,12,13},
	{1,2,3,4,5,7,9,10,12,13},
	{1,2,4,5,7,9,10,11,12,13},
	{1,2,3,4,5,6,8,9,10,12},
	{1,2,3,5,6,7,8,9,10,13},
	{1,2,4,5,7,9,10,11,12,13},
	{1,2,3,5,6,7,8,9,10,13},
	{1,2,3,4,5,6,8,9,10,12},
	{1,2,3,4,5,7,9,10,12,13},
	{2,3,5,7,10,11,12,13},
	{1,2,3,5,6,7,8,9,10,13},
	{1,2,3,5,6,7,8,9,10,11,12,13},
	{2,3,5,7,10,11,12,13},
	{1,2,4,5,7,9,10,11,12,13},
	{1,2,3,5,6,7,8,9,10,11,12,13},
	{1,2,3,5,6,7,8,9,10,13},
	{1,2,3,5,6,7,8,9,10,13},
	{1,2,3,4,5,7,9,10,12,13},
	{1,2,3,4,5,7,9,10,12,13},
	{}];

POTENTIAL_ACT = [{2,4,5,6,7,8,9,10,11,13,14,16,17,18,19,20,21},
	{2,3,4,5,6,7,8,9,10,11,12,13,14,15,16,17,18,19,20,21},
	{3,4,6,7,9,10,11,12,13,14,15,17,18,19,20,21},
	{2,4,5,6,8,10,11,16,20,21},
	{2,3,4,5,6,7,8,9,10,11,12,13,14,15,16,17,18,19,20,21},
	{6,7,9,10,13,14,17,18,19},
	{2,3,4,5,7,8,9,11,12,13,14,15,16,17,18,19,20,21},
	{6,7,9,10,13,14,17,18,19},
	{2,4,5,6,7,8,9,10,11,13,14,16,17,18,19,20,21},
	{2,3,4,5,6,7,8,9,10,11,12,13,14,15,16,17,18,19,20,21},
	{2,3,5,8,12,14,15,16,17},
	{2,3,4,5,6,8,10,11,12,14,15,16,17,20,21},
	{2,3,4,5,7,8,9,11,12,13,14,15,16,17,18,19,20,21}];
